198 22223
1 17 16 15 14 29 30 46 52 81 95 94 93 102 122 121 123 139 159 158 157 156 155 154 97 98 99 100 86 12 8 9 10 11 13 57 42 43 54 61 62 65 76 77 138 142 147 148 153 162 161 160 149 150 163 164 166 165 151 144 145 152 146 143 140 134 135 141 132 131 130 133 136 129 137 172 189 183 181 177 175 174 173 176 168 108 109 110 111 112 107 106 92 79 91 80 78 64 48 35 39 34 27 26 25 24 21 20 19 18 23 22 28 33 36 37 32 31 38 68 72 85 71 69 58 56 55 60 67 59 73 70 84 87 88 83 82 74 66 75 89 90 96 101 103 104 105 114 113 115 116 117 118 119 120 124 169 125 126 127 170 128 171 190 191 188 185 187 192 193 186 196 197 198 195 194 179 178 180 184 182 167 63 49 50 51 47 53 45 44 41 40 4 5 6 3 2 7 
